p cnf 7230 17
-1552 -2640 -2822 0
-365 -2676 -2820 0
-363 -2674 -2818 0
1552 -2823 0
365 -2821 0
363 -2819 0
2822 2823 0
2820 2821 0
2818 2819 0
2640 -2823 0
2676 -2821 0
2674 -2819 0
-1554 -2120 2825 0
2816 2817 0
-2816 -2817 0
2120 -2825 0
1554 -2825 0
